NAME : P131212.91562.tour
COMMENT : Length = 91562
COMMENT : Found by LKH-3 [Keld Helsgaun] Tue Dec 17 14:07:43 2024
TYPE : TOUR
DIMENSION : 170
TOUR_SECTION
1
161
2
162
3
34
63
145
35
23
102
21
155
163
4
110
97
30
71
92
164
5
158
128
165
6
84
64
88
76
69
53
134
142
60
61
139
133
117
131
111
101
116
58
109
166
7
167
8
168
9
169
10
82
100
119
62
160
108
90
59
74
32
95
42
83
22
57
112
73
16
40
136
12
39
149
138
127
78
121
31
96
137
104
118
19
48
143
144
18
55
135
94
77
157
56
105
120
124
151
106
154
113
17
24
159
156
47
15
26
70
37
122
51
87
129
25
33
14
123
114
50
67
91
147
75
52
107
115
148
49
99
20
45
38
146
130
125
43
46
68
93
13
89
44
41
126
27
28
153
98
11
29
132
54
85
80
86
152
36
66
65
79
140
72
103
141
150
81
170
-1
EOF
